(declare-fun or.cond_11_54 () (_ BitVec 1))
(declare-fun cmp30.i.i_11_52 () (_ BitVec 1))
(declare-fun spec.select_11_50 () (_ BitVec 1))
(declare-fun src_reg1.sroa.42.0.copyload_11_41 () (_ BitVec 64))
(declare-fun cmp19.i.i_11_48 () (_ BitVec 1))
(declare-fun or.cond31_11_47 () (_ BitVec 1))
(declare-fun src_reg1.sroa.34.0.copyload_11_40 () (_ BitVec 64))
(declare-fun cmp16.i.i_11_45 () (_ BitVec 1))
(declare-fun tobool.not.i1.i.i_11_44 () (_ BitVec 1))
(declare-fun src_reg1.sroa.31.0.copyload_11_39 () (_ BitVec 64))
(declare-fun src_reg1.sroa.27.0.copyload_11_38 () (_ BitVec 64))
(declare-fun src_reg1.sroa.13.0.copyload_11_42 () (_ BitVec 64))
(declare-fun src_reg_11_21 () (_ BitVec 64))
(declare-fun src_reg_11_25 () (_ BitVec 64))
(declare-fun src_reg_11_24 () (_ BitVec 64))
(declare-fun src_reg_11_23 () (_ BitVec 64))
(declare-fun src_reg_11_22 () (_ BitVec 64))
(declare-fun src_reg_11_35 () (_ BitVec 8))
(declare-fun src_reg_11_34 () (_ BitVec 32))
(declare-fun src_reg_11_33 () (_ BitVec 32))
(declare-fun src_reg_11_32 () (_ BitVec 32))
(declare-fun src_reg_11_31 () (_ BitVec 32))
(declare-fun src_reg_11_30 () (_ BitVec 32))
(declare-fun src_reg_11_29 () (_ BitVec 32))
(declare-fun src_reg_11_28 () (_ BitVec 32))
(declare-fun src_reg_11_27 () (_ BitVec 32))
(declare-fun src_reg_11_26 () (_ BitVec 32))
(declare-fun src_reg_11_20 () (_ BitVec 64))
(declare-fun src_reg_11_19 () (_ BitVec 32))
(declare-fun src_reg_11_18 () (_ BitVec 32))
(declare-fun dst_reg_11_17 () (_ BitVec 8))
(declare-fun dst_reg_11_16 () (_ BitVec 32))
(declare-fun dst_reg_11_15 () (_ BitVec 32))
(declare-fun dst_reg_11_14 () (_ BitVec 32))
(declare-fun dst_reg_11_13 () (_ BitVec 32))
(declare-fun dst_reg_11_12 () (_ BitVec 32))
(declare-fun dst_reg_11_11 () (_ BitVec 32))
(declare-fun dst_reg_11_10 () (_ BitVec 32))
(declare-fun dst_reg_11_9 () (_ BitVec 32))
(declare-fun dst_reg_11_8 () (_ BitVec 32))
(declare-fun dst_reg_11_7 () (_ BitVec 64))
(declare-fun dst_reg_11_6 () (_ BitVec 64))
(declare-fun dst_reg_11_5 () (_ BitVec 64))
(declare-fun dst_reg_11_4 () (_ BitVec 64))
(declare-fun dst_reg_11_3 () (_ BitVec 64))
(declare-fun dst_reg_11_2 () (_ BitVec 64))
(declare-fun dst_reg_11_1 () (_ BitVec 32))
(declare-fun dst_reg_11_0 () (_ BitVec 32))
(declare-fun or8.i.i.i964.i_11_105 () (_ BitVec 64))
(declare-fun cond14.i8.i.i966.i_11_107 () (_ BitVec 64))
(declare-fun shr1.i.i_11_74 () (_ BitVec 64))
(declare-fun cmp10.i.i.i965.i_11_106 () (_ BitVec 1))
(declare-fun shr14.i.i.i_11_79 () (_ BitVec 64))
(declare-fun and7.i.i.i963.i_11_104 () (_ BitVec 64))
(declare-fun shr19.i.i.i_11_80 () (_ BitVec 64))
(declare-fun or.i5.i.i958.i_11_100 () (_ BitVec 64))
(declare-fun cond.i7.i.i960.i_11_102 () (_ BitVec 64))
(declare-fun shr.i902.i_11_72 () (_ BitVec 64))
(declare-fun cmp.i6.i.i959.i_11_101 () (_ BitVec 1))
(declare-fun and.i4.i.i957.i_11_99 () (_ BitVec 64))
(declare-fun and.i.i.i.i.i922.i30_11_96 () (_ BitVec 64))
(declare-fun conv29.i.i.i948.i_11_97 () (_ BitVec 32))
(declare-fun conv17.i.i.i942.i_11_95 () (_ BitVec 32))
(declare-fun or6.i.i.i936.i_11_93 () (_ BitVec 64))
(declare-fun conv7.i.i.i937.i_11_94 () (_ BitVec 32))
(declare-fun and5.i.i.i935.i_11_92 () (_ BitVec 64))
(declare-fun or.i.i.i929.i_11_89 () (_ BitVec 64))
(declare-fun conv.i.i.i930.i_11_90 () (_ BitVec 32))
(declare-fun and.i.i.i928.i_11_88 () (_ BitVec 64))
(declare-fun sh_prom.i.i910.i_11_78 () (_ BitVec 64))
(declare-fun i16.i909.i_11_76 () (_ BitVec 64))
(declare-fun i14.i907.i_11_75 () (_ BitVec 64))
(declare-fun i12.i904.i_11_73 () (_ BitVec 64))
(declare-fun i11.i901.i_11_71 () (_ BitVec 64))
(declare-fun src_reg_11_179 () (_ BitVec 8))
(declare-fun src_reg_11_143 () (_ BitVec 8))
(declare-fun src_reg_11_178 () (_ BitVec 32))
(declare-fun src_reg_11_142 () (_ BitVec 32))
(declare-fun src_reg_11_177 () (_ BitVec 32))
(declare-fun src_reg_11_141 () (_ BitVec 32))
(declare-fun src_reg_11_176 () (_ BitVec 32))
(declare-fun src_reg_11_140 () (_ BitVec 32))
(declare-fun src_reg_11_175 () (_ BitVec 32))
(declare-fun src_reg_11_139 () (_ BitVec 32))
(declare-fun src_reg_11_174 () (_ BitVec 32))
(declare-fun src_reg_11_138 () (_ BitVec 32))
(declare-fun src_reg_11_173 () (_ BitVec 32))
(declare-fun src_reg_11_137 () (_ BitVec 32))
(declare-fun src_reg_11_172 () (_ BitVec 32))
(declare-fun src_reg_11_136 () (_ BitVec 32))
(declare-fun src_reg_11_171 () (_ BitVec 32))
(declare-fun src_reg_11_135 () (_ BitVec 32))
(declare-fun src_reg_11_170 () (_ BitVec 32))
(declare-fun src_reg_11_134 () (_ BitVec 32))
(declare-fun src_reg_11_169 () (_ BitVec 64))
(declare-fun src_reg_11_133 () (_ BitVec 64))
(declare-fun src_reg_11_168 () (_ BitVec 64))
(declare-fun src_reg_11_132 () (_ BitVec 64))
(declare-fun src_reg_11_167 () (_ BitVec 64))
(declare-fun src_reg_11_131 () (_ BitVec 64))
(declare-fun src_reg_11_166 () (_ BitVec 64))
(declare-fun src_reg_11_130 () (_ BitVec 64))
(declare-fun src_reg_11_165 () (_ BitVec 64))
(declare-fun src_reg_11_129 () (_ BitVec 64))
(declare-fun src_reg_11_164 () (_ BitVec 64))
(declare-fun src_reg_11_128 () (_ BitVec 64))
(declare-fun src_reg_11_163 () (_ BitVec 32))
(declare-fun src_reg_11_127 () (_ BitVec 32))
(declare-fun src_reg_11_162 () (_ BitVec 32))
(declare-fun src_reg_11_126 () (_ BitVec 32))
(declare-fun dst_reg_11_161 () (_ BitVec 8))
(declare-fun dst_reg_11_125 () (_ BitVec 8))
(declare-fun dst_reg_11_160 () (_ BitVec 32))
(declare-fun dst_reg_11_124 () (_ BitVec 32))
(declare-fun dst_reg_11_159 () (_ BitVec 32))
(declare-fun dst_reg_11_123 () (_ BitVec 32))
(declare-fun dst_reg_11_158 () (_ BitVec 32))
(declare-fun dst_reg_11_122 () (_ BitVec 32))
(declare-fun dst_reg_11_157 () (_ BitVec 32))
(declare-fun dst_reg_11_121 () (_ BitVec 32))
(declare-fun dst_reg_11_156 () (_ BitVec 32))
(declare-fun dst_reg_11_120 () (_ BitVec 32))
(declare-fun dst_reg_11_155 () (_ BitVec 32))
(declare-fun dst_reg_11_119 () (_ BitVec 32))
(declare-fun dst_reg_11_154 () (_ BitVec 32))
(declare-fun dst_reg_11_118 () (_ BitVec 32))
(declare-fun dst_reg_11_153 () (_ BitVec 32))
(declare-fun dst_reg_11_117 () (_ BitVec 32))
(declare-fun dst_reg_11_152 () (_ BitVec 32))
(declare-fun dst_reg_11_116 () (_ BitVec 32))
(declare-fun dst_reg_11_151 () (_ BitVec 64))
(declare-fun dst_reg_11_115 () (_ BitVec 64))
(declare-fun dst_reg_11_150 () (_ BitVec 64))
(declare-fun dst_reg_11_114 () (_ BitVec 64))
(declare-fun dst_reg_11_149 () (_ BitVec 64))
(declare-fun dst_reg_11_113 () (_ BitVec 64))
(declare-fun dst_reg_11_148 () (_ BitVec 64))
(declare-fun dst_reg_11_112 () (_ BitVec 64))
(declare-fun dst_reg_11_147 () (_ BitVec 64))
(declare-fun dst_reg_11_111 () (_ BitVec 64))
(declare-fun dst_reg_11_146 () (_ BitVec 64))
(declare-fun dst_reg_11_110 () (_ BitVec 64))
(declare-fun dst_reg_11_145 () (_ BitVec 32))
(declare-fun dst_reg_11_109 () (_ BitVec 32))
(declare-fun dst_reg_11_144 () (_ BitVec 32))
(declare-fun dst_reg_11_108 () (_ BitVec 32))
(assert (let ((a!1 (and (=> (= or.cond_11_54 #b1)
                    (and (= #x00000001 src_reg_11_126)
                         (= src_reg_11_19 src_reg_11_127)
                         (= src_reg_11_20 src_reg_11_128)
                         (= src_reg_11_21 src_reg_11_129)
                         (= src_reg_11_22 src_reg_11_130)
                         (= src_reg_11_23 src_reg_11_131)
                         (= src_reg_11_24 src_reg_11_132)
                         (= src_reg_11_25 src_reg_11_133)
                         (= src_reg_11_26 src_reg_11_134)
                         (= src_reg_11_27 src_reg_11_135)
                         (= src_reg_11_28 src_reg_11_136)
                         (= src_reg_11_29 src_reg_11_137)
                         (= src_reg_11_30 src_reg_11_138)
                         (= src_reg_11_31 src_reg_11_139)
                         (= src_reg_11_32 src_reg_11_140)
                         (= src_reg_11_33 src_reg_11_141)
                         (= src_reg_11_34 src_reg_11_142)
                         (= src_reg_11_35 src_reg_11_143)
                         (= #x00000001 dst_reg_11_108)
                         (= dst_reg_11_1 dst_reg_11_109)
                         (= shr14.i.i.i_11_79 dst_reg_11_110)
                         (= shr19.i.i.i_11_80 dst_reg_11_111)
                         (= cond.i7.i.i960.i_11_102 dst_reg_11_112)
                         (= cond14.i8.i.i966.i_11_107 dst_reg_11_113)
                         (= shr14.i.i.i_11_79 dst_reg_11_114)
                         (= and.i.i.i.i.i922.i30_11_96 dst_reg_11_115)
                         (= conv.i.i.i930.i_11_90 dst_reg_11_116)
                         (= conv7.i.i.i937.i_11_94 dst_reg_11_117)
                         (= conv17.i.i.i942.i_11_95 dst_reg_11_118)
                         (= conv29.i.i.i948.i_11_97 dst_reg_11_119)
                         (= dst_reg_11_12 dst_reg_11_120)
                         (= dst_reg_11_13 dst_reg_11_121)
                         (= dst_reg_11_14 dst_reg_11_122)
                         (= dst_reg_11_15 dst_reg_11_123)
                         (= dst_reg_11_16 dst_reg_11_124)
                         (= dst_reg_11_17 dst_reg_11_125)))
                (=> (= or.cond_11_54 #b0)
                    (and (= #x00000001 src_reg_11_126)
                         (= src_reg_11_19 src_reg_11_127)
                         (= src_reg_11_20 src_reg_11_128)
                         (= src_reg_11_21 src_reg_11_129)
                         (= src_reg_11_22 src_reg_11_130)
                         (= src_reg_11_23 src_reg_11_131)
                         (= src_reg_11_24 src_reg_11_132)
                         (= src_reg_11_25 src_reg_11_133)
                         (= src_reg_11_26 src_reg_11_134)
                         (= src_reg_11_27 src_reg_11_135)
                         (= src_reg_11_28 src_reg_11_136)
                         (= src_reg_11_29 src_reg_11_137)
                         (= src_reg_11_30 src_reg_11_138)
                         (= src_reg_11_31 src_reg_11_139)
                         (= src_reg_11_32 src_reg_11_140)
                         (= src_reg_11_33 src_reg_11_141)
                         (= src_reg_11_34 src_reg_11_142)
                         (= src_reg_11_35 src_reg_11_143)
                         (= #x00000001 dst_reg_11_108)
                         (= dst_reg_11_1 dst_reg_11_109)
                         (= #x0000000000000000 dst_reg_11_110)
                         (= #xffffffffffffffff dst_reg_11_111)
                         (= #x8000000000000000 dst_reg_11_112)
                         (= #x7fffffffffffffff dst_reg_11_113)
                         (= #x0000000000000000 dst_reg_11_114)
                         (= #xffffffffffffffff dst_reg_11_115)
                         (= #x80000000 dst_reg_11_116)
                         (= #x7fffffff dst_reg_11_117)
                         (= #x00000000 dst_reg_11_118)
                         (= #xffffffff dst_reg_11_119)
                         (= #x00000000 dst_reg_11_120)
                         (= #x00000000 dst_reg_11_121)
                         (= #x00000000 dst_reg_11_122)
                         (= dst_reg_11_15 dst_reg_11_123)
                         (= dst_reg_11_16 dst_reg_11_124)
                         (= #x01 dst_reg_11_125)))
                (= dst_reg_11_108 dst_reg_11_144)
                (= dst_reg_11_109 dst_reg_11_145)
                (= dst_reg_11_110 dst_reg_11_146)
                (= dst_reg_11_111 dst_reg_11_147)
                (= dst_reg_11_112 dst_reg_11_148)
                (= dst_reg_11_113 dst_reg_11_149)
                (= dst_reg_11_114 dst_reg_11_150)
                (= dst_reg_11_115 dst_reg_11_151)
                (= dst_reg_11_116 dst_reg_11_152)
                (= dst_reg_11_117 dst_reg_11_153)
                (= dst_reg_11_118 dst_reg_11_154)
                (= dst_reg_11_119 dst_reg_11_155)
                (= dst_reg_11_120 dst_reg_11_156)
                (= dst_reg_11_121 dst_reg_11_157)
                (= dst_reg_11_122 dst_reg_11_158)
                (= dst_reg_11_123 dst_reg_11_159)
                (= dst_reg_11_124 dst_reg_11_160)
                (= dst_reg_11_125 dst_reg_11_161)
                (= src_reg_11_126 src_reg_11_162)
                (= src_reg_11_127 src_reg_11_163)
                (= src_reg_11_128 src_reg_11_164)
                (= src_reg_11_129 src_reg_11_165)
                (= src_reg_11_130 src_reg_11_166)
                (= src_reg_11_131 src_reg_11_167)
                (= src_reg_11_132 src_reg_11_168)
                (= src_reg_11_133 src_reg_11_169)
                (= src_reg_11_134 src_reg_11_170)
                (= src_reg_11_135 src_reg_11_171)
                (= src_reg_11_136 src_reg_11_172)
                (= src_reg_11_137 src_reg_11_173)
                (= src_reg_11_138 src_reg_11_174)
                (= src_reg_11_139 src_reg_11_175)
                (= src_reg_11_140 src_reg_11_176)
                (= src_reg_11_141 src_reg_11_177)
                (= src_reg_11_142 src_reg_11_178)
                (= src_reg_11_143 src_reg_11_179)))
      (a!2 (=> (= or.cond_11_54 #b1)
               (and (= dst_reg_11_4 i11.i901.i_11_71)
                    (= shr.i902.i_11_72
                       (bvashr i11.i901.i_11_71
                               src_reg1.sroa.34.0.copyload_11_40))
                    (= dst_reg_11_5 i12.i904.i_11_73)
                    (= shr1.i.i_11_74
                       (bvashr i12.i904.i_11_73
                               src_reg1.sroa.34.0.copyload_11_40))
                    (= dst_reg_11_2 i14.i907.i_11_75)
                    (= dst_reg_11_3 i16.i909.i_11_76)
                    (= sh_prom.i.i910.i_11_78
                       (bvand src_reg1.sroa.34.0.copyload_11_40
                              #x00000000000000ff))
                    (= shr14.i.i.i_11_79
                       (bvashr i14.i907.i_11_75 sh_prom.i.i910.i_11_78))
                    (= shr19.i.i.i_11_80
                       (bvashr i16.i909.i_11_76 sh_prom.i.i910.i_11_78))
                    (= and.i.i.i928.i_11_88
                       (bvand shr19.i.i.i_11_80 #x0000000080000000))
                    (= or.i.i.i929.i_11_89
                       (bvor and.i.i.i928.i_11_88 shr14.i.i.i_11_79))
                    (= conv.i.i.i930.i_11_90
                       ((_ extract 31 0) or.i.i.i929.i_11_89))
                    (= and5.i.i.i935.i_11_92
                       (bvand shr19.i.i.i_11_80 #x000000007fffffff))
                    (= or6.i.i.i936.i_11_93
                       (bvor and5.i.i.i935.i_11_92 shr14.i.i.i_11_79))
                    (= conv7.i.i.i937.i_11_94
                       ((_ extract 31 0) or6.i.i.i936.i_11_93))
                    (= conv17.i.i.i942.i_11_95
                       ((_ extract 31 0) shr14.i.i.i_11_79))
                    (= and.i.i.i.i.i922.i30_11_96
                       (bvor shr19.i.i.i_11_80 shr14.i.i.i_11_79))
                    (= conv29.i.i.i948.i_11_97
                       ((_ extract 31 0) and.i.i.i.i.i922.i30_11_96))
                    (= and.i4.i.i957.i_11_99
                       (bvand shr19.i.i.i_11_80 #x8000000000000000))
                    (= or.i5.i.i958.i_11_100
                       (bvor and.i4.i.i957.i_11_99 shr14.i.i.i_11_79))
                    (ite (bvsgt shr.i902.i_11_72 or.i5.i.i958.i_11_100)
                         (= cmp.i6.i.i959.i_11_101 #b1)
                         (= cmp.i6.i.i959.i_11_101 #b0))
                    (ite (= cmp.i6.i.i959.i_11_101 #b1)
                         (= cond.i7.i.i960.i_11_102 shr.i902.i_11_72)
                         (= cond.i7.i.i960.i_11_102 or.i5.i.i958.i_11_100))
                    (= and7.i.i.i963.i_11_104
                       (bvand shr19.i.i.i_11_80 #x7fffffffffffffff))
                    (= or8.i.i.i964.i_11_105
                       (bvor and7.i.i.i963.i_11_104 shr14.i.i.i_11_79))
                    (ite (bvslt shr1.i.i_11_74 or8.i.i.i964.i_11_105)
                         (= cmp10.i.i.i965.i_11_106 #b1)
                         (= cmp10.i.i.i965.i_11_106 #b0))
                    (ite (= cmp10.i.i.i965.i_11_106 #b1)
                         (= cond14.i8.i.i966.i_11_107 shr1.i.i_11_74)
                         (= cond14.i8.i.i966.i_11_107 or8.i.i.i964.i_11_105))))))
  (and (=> (or (= or.cond_11_54 #b1) (= or.cond_11_54 #b0)) a!1)
       a!2
       (= dst_reg_11_0 dst_reg_11_0)
       (= dst_reg_11_1 dst_reg_11_1)
       (= dst_reg_11_2 dst_reg_11_2)
       (= dst_reg_11_3 dst_reg_11_3)
       (= dst_reg_11_4 dst_reg_11_4)
       (= dst_reg_11_5 dst_reg_11_5)
       (= dst_reg_11_6 dst_reg_11_6)
       (= dst_reg_11_7 dst_reg_11_7)
       (= dst_reg_11_8 dst_reg_11_8)
       (= dst_reg_11_9 dst_reg_11_9)
       (= dst_reg_11_10 dst_reg_11_10)
       (= dst_reg_11_11 dst_reg_11_11)
       (= dst_reg_11_12 dst_reg_11_12)
       (= dst_reg_11_13 dst_reg_11_13)
       (= dst_reg_11_14 dst_reg_11_14)
       (= dst_reg_11_15 dst_reg_11_15)
       (= dst_reg_11_16 dst_reg_11_16)
       (= dst_reg_11_17 dst_reg_11_17)
       (= src_reg_11_18 src_reg_11_18)
       (= src_reg_11_19 src_reg_11_19)
       (= src_reg_11_20 src_reg_11_20)
       (= src_reg_11_21 src_reg_11_21)
       (= src_reg_11_22 src_reg_11_22)
       (= src_reg_11_23 src_reg_11_23)
       (= src_reg_11_24 src_reg_11_24)
       (= src_reg_11_25 src_reg_11_25)
       (= src_reg_11_26 src_reg_11_26)
       (= src_reg_11_27 src_reg_11_27)
       (= src_reg_11_28 src_reg_11_28)
       (= src_reg_11_29 src_reg_11_29)
       (= src_reg_11_30 src_reg_11_30)
       (= src_reg_11_31 src_reg_11_31)
       (= src_reg_11_32 src_reg_11_32)
       (= src_reg_11_33 src_reg_11_33)
       (= src_reg_11_34 src_reg_11_34)
       (= src_reg_11_35 src_reg_11_35)
       (= src_reg_11_22 src_reg1.sroa.27.0.copyload_11_38)
       (= src_reg_11_23 src_reg1.sroa.31.0.copyload_11_39)
       (= src_reg_11_24 src_reg1.sroa.34.0.copyload_11_40)
       (= src_reg_11_25 src_reg1.sroa.42.0.copyload_11_41)
       (= src_reg_11_21 src_reg1.sroa.13.0.copyload_11_42)
       (ite (= src_reg1.sroa.13.0.copyload_11_42 #x0000000000000000)
            (= tobool.not.i1.i.i_11_44 #b1)
            (= tobool.not.i1.i.i_11_44 #b0))
       (ite (= src_reg1.sroa.27.0.copyload_11_38
               src_reg1.sroa.31.0.copyload_11_39)
            (= cmp16.i.i_11_45 #b1)
            (= cmp16.i.i_11_45 #b0))
       (ite (= tobool.not.i1.i.i_11_44 #b1)
            (= or.cond31_11_47 cmp16.i.i_11_45)
            (= or.cond31_11_47 #b0))
       (ite (= src_reg1.sroa.34.0.copyload_11_40
               src_reg1.sroa.42.0.copyload_11_41)
            (= cmp19.i.i_11_48 #b1)
            (= cmp19.i.i_11_48 #b0))
       (ite (= or.cond31_11_47 #b1)
            (= spec.select_11_50 cmp19.i.i_11_48)
            (= spec.select_11_50 #b0))
       (ite (bvult src_reg1.sroa.42.0.copyload_11_41 #x0000000000000040)
            (= cmp30.i.i_11_52 #b1)
            (= cmp30.i.i_11_52 #b0))
       (ite (= spec.select_11_50 #b1)
            (= or.cond_11_54 cmp30.i.i_11_52)
            (= or.cond_11_54 #b0)))))

;{"dst_reg":["dst_reg_11_0","dst_reg_11_1",[""],["dst_reg_11_2","dst_reg_11_3"],"dst_reg_11_4","dst_reg_11_5","dst_reg_11_6","dst_reg_11_7","dst_reg_11_8","dst_reg_11_9","dst_reg_11_10","dst_reg_11_11","dst_reg_11_12","dst_reg_11_13","","","dst_reg_11_14","dst_reg_11_15","dst_reg_11_16"],"src_reg":["src_reg_11_18","src_reg_11_19",[""],["src_reg_11_20","src_reg_11_21"],"src_reg_11_22","src_reg_11_23","src_reg_11_24","src_reg_11_25","src_reg_11_26","src_reg_11_27","src_reg_11_28","src_reg_11_29","src_reg_11_30","src_reg_11_31","","","src_reg_11_32","src_reg_11_33","src_reg_11_34"]}
;{"dst_reg":["dst_reg_11_144","dst_reg_11_145",[""],["dst_reg_11_146","dst_reg_11_147"],"dst_reg_11_148","dst_reg_11_149","dst_reg_11_150","dst_reg_11_151","dst_reg_11_152","dst_reg_11_153","dst_reg_11_154","dst_reg_11_155","dst_reg_11_156","dst_reg_11_157","","","dst_reg_11_158","dst_reg_11_159","dst_reg_11_160"],"src_reg":["src_reg_11_162","src_reg_11_163",[""],["src_reg_11_164","src_reg_11_165"],"src_reg_11_166","src_reg_11_167","src_reg_11_168","src_reg_11_169","src_reg_11_170","src_reg_11_171","src_reg_11_172","src_reg_11_173","src_reg_11_174","src_reg_11_175","","","src_reg_11_176","src_reg_11_177","src_reg_11_178"]}
